9
-1 12 25 30 18 27 15 19 23
17 -1 22 13 35 20 25 10 24
27 18 -1 29 40 12 22 31 15
20 25 14 -1 18 11 27 23 17
15 22 33 17 -1 24 19 29 26
18 29 27 26 15 -1 30 22 20
23 14 11 19 28 25 -1 31 18
22 20 33 24 16 19 26 -1 12
25 19 17 21 30 16 27 22 -1
